Cost: 312
0-6-16-23-1-22-28-2-30-0
0-26-10-11-14-19-8-46-0
0-51-44-32-9-39-40-12-0
0-4-45-29-15-13-27-52-34-0
Cost: 312
0-4-45-29-15-13-27-52-34-0
0-6-16-23-1-22-28-2-30-0
0-51-44-32-9-39-40-12-0
0-26-10-11-14-19-8-46-0
Cost: 312
0-12-40-39-9-32-44-51-0
0-46-8-19-14-11-10-26-0
0-34-52-27-13-15-29-45-4-0
0-30-2-28-22-1-23-16-6-0
Cost: 312
0-26-10-11-14-19-8-46-0
0-12-40-39-9-32-44-51-0
0-4-45-29-15-13-27-52-34-0
0-6-16-23-1-22-28-2-30-0
Cost: 312
0-26-10-11-14-19-8-46-0
0-4-45-29-15-13-27-52-34-0
0-12-40-39-9-32-44-51-0
0-30-2-28-22-1-23-16-6-0
Cost: 313
0-46-8-19-14-53-11-10-0
0-6-16-23-1-22-28-2-30-0
0-26-12-39-9-32-44-40-0
0-4-45-29-15-13-27-52-34-0
Cost: 312
0-34-52-27-13-15-29-45-4-0
0-12-40-39-9-32-44-51-0
0-26-10-11-14-19-8-46-0
0-30-2-28-22-1-23-16-6-0
Cost: 312
0-34-52-27-13-15-29-45-4-0
0-12-40-39-9-32-44-51-0
0-26-10-11-14-19-8-46-0
0-30-2-28-22-1-23-16-6-0
Cost: 312
0-34-52-27-13-15-29-45-4-0
0-12-40-39-9-32-44-51-0
0-26-10-11-14-19-8-46-0
0-30-2-28-22-1-23-16-6-0
Cost: 312
0-6-16-23-1-22-28-2-30-0
0-51-44-32-9-39-40-12-0
0-46-8-19-14-11-10-26-0
0-34-52-27-13-15-29-45-4-0
Cost: 312
0-6-16-23-1-22-28-2-30-0
0-51-44-32-9-39-40-12-0
0-46-8-19-14-11-10-26-0
0-34-52-27-13-15-29-45-4-0
Cost: 312
0-26-10-11-14-19-8-46-0
0-4-45-29-15-13-27-52-34-0
0-30-2-28-22-1-23-16-6-0
0-12-40-39-9-32-44-51-0
Cost: 312
0-46-8-19-14-11-10-26-0
0-30-2-28-22-1-23-16-6-0
0-12-40-39-9-32-44-51-0
0-4-45-29-15-13-27-52-34-0
Cost: 312
0-46-8-19-14-11-10-26-0
0-6-16-23-1-22-28-2-30-0
0-4-45-29-15-13-27-52-34-0
0-51-44-32-9-39-40-12-0
Cost: 312
0-4-45-29-15-13-27-52-34-0
0-26-10-11-14-19-8-46-0
0-6-16-23-1-22-28-2-30-0
0-12-40-39-9-32-44-51-0
Cost: 312
0-4-45-29-15-13-27-52-34-0
0-26-10-11-14-19-8-46-0
0-6-16-23-1-22-28-2-30-0
0-12-40-39-9-32-44-51-0
Cost: 312
0-51-44-32-9-39-40-12-0
0-30-2-28-22-1-23-16-6-0
0-34-52-27-13-15-29-45-4-0
0-46-8-19-14-11-10-26-0
Cost: 312
0-46-8-19-14-11-10-26-0
0-6-16-23-1-22-28-2-30-0
0-34-52-27-13-15-29-45-4-0
0-51-44-32-9-39-40-12-0
Cost: 312
0-30-2-28-22-1-23-16-6-0
0-46-8-19-14-11-10-26-0
0-51-44-32-9-39-40-12-0
0-4-45-29-15-13-27-52-34-0
Cost: 312
0-30-2-28-22-1-23-16-6-0
0-46-8-19-14-11-10-26-0
0-51-44-32-9-39-40-12-0
0-4-45-29-15-13-27-52-34-0
Cost: 312
0-51-44-32-9-39-40-12-0
0-30-2-28-22-1-23-16-6-0
0-34-52-27-13-15-29-45-4-0
0-26-10-11-14-19-8-46-0
Cost: 312
0-46-8-19-14-11-10-26-0
0-6-16-23-1-22-28-2-30-0
0-51-44-32-9-39-40-12-0
0-34-52-27-13-15-29-45-4-0
Cost: 312
0-12-40-39-9-32-44-51-0
0-26-10-11-14-19-8-46-0
0-30-2-28-22-1-23-16-6-0
0-34-52-27-13-15-29-45-4-0
Cost: 312
0-46-8-19-14-11-10-26-0
0-6-16-23-1-22-28-2-30-0
0-51-44-32-9-39-40-12-0
0-34-52-27-13-15-29-45-4-0
Cost: 312
0-46-8-19-14-11-10-26-0
0-6-16-23-1-22-28-2-30-0
0-34-52-27-13-15-29-45-4-0
0-51-44-32-9-39-40-12-0
Cost: 312
0-30-2-28-22-1-23-16-6-0
0-46-8-19-14-11-10-26-0
0-51-44-32-9-39-40-12-0
0-4-45-29-15-13-27-52-34-0
Cost: 312
0-12-40-39-9-32-44-51-0
0-26-10-11-14-19-8-46-0
0-34-52-27-13-15-29-45-4-0
0-6-16-23-1-22-28-2-30-0
Cost: 0
Cost: 314
0-30-45-29-15-13-27-52-4-0
0-6-33-23-43-1-22-28-2-0
0-34-46-8-19-14-11-53-26-0
0-12-10-39-9-40-17-0
Cost: 312
0-26-10-11-14-19-8-46-0
0-6-16-23-1-22-28-2-30-0
0-51-44-32-9-39-40-12-0
0-4-45-29-15-13-27-52-34-0
Cost: 312
0-4-45-29-15-13-27-52-34-0
0-51-44-32-9-39-40-12-0
0-26-10-11-14-19-8-46-0
0-6-16-23-1-22-28-2-30-0
